30
30
1
3
3600
450 523 582 596 643 783 928 947 1000 1251 1354 1358 1373 1386 1499 1744 1808 1955 2135 2312 2519 2552 2593 2773 2838 2850 2890 2902 2942 2966 
27 32 29 20 34 36 34 35 11 25 35 8 6 26 5 14 6 9 36 9 22 15 30 16 12 36 8 10 22 20 
